set OLIVE := FR LE MA MO PE TA;
set REP := A B C;

param: Prezzo QtaMin QtaMax Resa Acid :=
FR 15 2 10 22 0.9
LE 12 2 80 19 0.8
MA 10 2 10 20 1
MO 16 2 30 20 0.7
PE 12 2 10 22 1
TA 30 2 100 26 0.4;

param: OreMax :=
A 70
B 55
C 55;

param Cons: A B C :=
FR 2.1 2.3 2.3
LE 4.5 3.5 3.5
MA 5.5 5.5 3
MO 3.4 3.5 3.5
PE 4 4 5
TA 3 3 2;

param OlioQta := 1200;

param AcidMax := 0.7;
